4057.0 130718.0 
4001.0 130989.0 
3993.0 131576.0 
3999.0 131028.0 
4146.0 130098.0 
3983.0 131614.0 
4060.0 130625.0 
4052.0 130820.0 
3962.0 131919.0 
4008.0 130853.0 
4130.0 130256.0 
4063.0 130402.0 
3971.0 131647.0 
4107.0 130262.0 
4053.0 130789.0 
3959.0 134748.0 
